set VV := 0 1 2 3 4 5 6 7 8 9 10 11 12 13 14 15 16 17 18 19 20 21 22 23 24 25 26 27 28 29 30 31 32 33 ;
set VS := 0 1 2 3 4 5 6 7 8 9 10 11 12 13 14 15 16 17 18 19 20 21 22 23 24 25 26 27 28 29 30 31 32 33 34 35 36 37 38 39 40 41 42 43 44 45 46 47 48 49 50 51 52 53 54 55 56 57 58 59 60 61 62 63 64 65 66 67 68 69 70 71 72 ;
param cv := 
0 22
1 17
2 21
3 18
4 20
5 11
6 12
7 22
8 23
9 15
10 17
11 11
12 11
13 21
14 14
15 24
16 15
17 10
18 25
19 12
20 24
21 11
22 15
23 25
24 22
25 11
26 10
27 14
28 20
29 20
30 16
31 19
32 19
33 15
;
param cs := 
0 36
1 39
2 29
3 23
4 31
5 23
6 34
7 37
8 27
9 22
10 29
11 32
12 28
13 36
14 26
15 21
16 34
17 32
18 28
19 26
20 24
21 20
22 31
23 40
24 24
25 37
26 23
27 25
28 32
29 25
30 39
31 21
32 25
33 39
34 24
35 28
36 32
37 27
38 32
39 37
40 26
41 33
42 37
43 26
44 38
45 25
46 30
47 29
48 33
49 24
50 28
51 33
52 25
53 39
54 24
55 35
56 36
57 32
58 25
59 21
60 21
61 33
62 36
63 32
64 30
65 40
66 23
67 34
68 37
69 31
70 28
71 35
72 37
;
param bv:	 0 1 2 3 4 5 6 7 8 9 10 11 12 13 14 15 16 17 18 19 20 21 22 23 24 25 26 27 28 29 30 31 32 33 := 
		0 0 0 0 0 0 0 15 0 0 0 0 0 0 0 0 0 0 0 11 16 0 0 0 0 0 19 0 0 0 0 25 0 0 0 
		1 0 0 0 0 0 0 0 0 0 23 0 0 0 12 20 0 0 0 0 0 0 19 0 0 0 0 0 0 0 0 0 0 0 0 
		2 0 0 0 11 0 0 0 0 0 0 0 21 19 0 0 0 0 0 23 0 0 0 0 0 0 0 0 0 0 0 0 0 0 0 
		3 0 0 0 0 0 0 0 10 0 0 13 0 0 0 0 0 0 0 0 0 17 0 0 25 0 0 0 0 0 0 0 0 0 0 
		4 0 0 0 0 0 0 23 0 17 0 0 0 0 0 23 0 0 0 0 0 0 0 0 0 0 0 24 0 24 0 0 12 0 21 
		5 0 0 0 0 0 0 0 0 0 0 0 0 0 0 0 19 0 0 0 0 0 0 0 25 0 0 0 0 0 0 0 15 0 15 
		6 0 0 0 0 0 0 0 0 0 16 0 0 0 0 0 0 0 0 23 12 0 0 0 0 0 0 0 0 0 0 20 0 0 23 
		7 0 0 0 0 0 0 0 0 0 0 0 0 0 0 0 0 0 0 0 0 0 0 0 0 0 0 15 0 12 10 0 0 0 0 
		8 0 0 0 0 0 0 0 0 0 0 0 0 0 0 0 0 0 0 0 0 0 0 0 10 0 0 0 0 12 0 0 0 0 0 
		9 0 0 0 0 0 0 0 0 0 0 0 0 0 0 0 0 0 0 0 0 0 0 0 0 22 0 0 0 15 0 0 0 0 0 
		10 0 0 0 0 0 0 0 0 0 0 0 0 0 0 0 0 24 0 0 0 0 0 0 0 0 0 0 0 0 0 0 0 0 0 
		11 0 0 0 0 0 0 0 0 0 0 0 0 0 0 0 0 0 0 0 0 0 0 0 0 0 0 0 0 0 21 0 0 25 0 
		12 0 0 0 0 0 0 0 0 0 0 0 0 0 14 0 0 0 0 0 0 0 0 0 0 0 14 0 0 24 0 25 0 0 0 
		13 0 0 0 0 0 0 0 0 0 0 0 0 0 0 0 0 0 15 0 0 0 0 0 0 0 0 0 0 0 0 0 13 0 0 
		14 0 0 0 0 0 0 0 0 0 0 0 0 0 0 0 0 0 0 0 0 0 0 0 0 0 16 0 0 14 0 0 0 0 0 
		15 0 0 0 0 0 0 0 0 0 0 0 0 0 0 0 0 0 0 0 0 0 17 21 0 0 0 21 0 0 0 0 0 0 0 
		16 0 0 0 0 0 0 0 0 0 0 0 0 0 0 0 0 0 0 0 23 0 0 0 19 0 18 0 0 0 0 0 0 0 0 
		17 0 0 0 0 0 0 0 0 0 0 0 0 0 0 0 0 0 0 0 0 0 0 0 0 0 0 17 0 0 0 0 0 0 0 
		18 0 0 0 0 0 0 0 0 0 0 0 0 0 0 0 0 0 0 0 0 0 0 0 0 0 0 0 12 0 18 11 0 0 0 
		19 0 0 0 0 0 0 0 0 0 0 0 0 0 0 0 0 0 0 0 0 0 0 0 10 21 0 0 0 0 0 0 0 0 0 
		20 0 0 0 0 0 0 0 0 0 0 0 0 0 0 0 0 0 0 0 0 0 0 0 0 0 0 0 0 0 0 0 0 0 10 
		21 0 0 0 0 0 0 0 0 0 0 0 0 0 0 0 0 0 0 0 0 0 0 0 0 0 0 0 0 0 0 0 0 0 0 
		22 0 0 0 0 0 0 0 0 0 0 0 0 0 0 0 0 0 0 0 0 0 0 0 0 0 0 0 0 20 0 0 0 0 0 
		23 0 0 0 0 0 0 0 0 0 0 0 0 0 0 0 0 0 0 0 0 0 0 0 0 0 0 0 0 0 0 0 0 0 0 
		24 0 0 0 0 0 0 0 0 0 0 0 0 0 0 0 0 0 0 0 0 0 0 0 0 0 18 13 0 0 0 11 0 0 0 
		25 0 0 0 0 0 0 0 0 0 0 0 0 0 0 0 0 0 0 0 0 0 0 0 0 0 0 0 0 0 0 11 0 0 0 
		26 0 0 0 0 0 0 0 0 0 0 0 0 0 0 0 0 0 0 0 0 0 0 0 0 0 0 0 0 0 0 0 0 22 0 
		27 0 0 0 0 0 0 0 0 0 0 0 0 0 0 0 0 0 0 0 0 0 0 0 0 0 0 0 0 0 0 0 0 0 0 
		28 0 0 0 0 0 0 0 0 0 0 0 0 0 0 0 0 0 0 0 0 0 0 0 0 0 0 0 0 0 0 0 0 0 0 
		29 0 0 0 0 0 0 0 0 0 0 0 0 0 0 0 0 0 0 0 0 0 0 0 0 0 0 0 0 0 0 0 0 0 0 
		30 0 0 0 0 0 0 0 0 0 0 0 0 0 0 0 0 0 0 0 0 0 0 0 0 0 0 0 0 0 0 0 0 0 0 
		31 0 0 0 0 0 0 0 0 0 0 0 0 0 0 0 0 0 0 0 0 0 0 0 0 0 0 0 0 0 0 0 0 0 0 
		32 0 0 0 0 0 0 0 0 0 0 0 0 0 0 0 0 0 0 0 0 0 0 0 0 0 0 0 0 0 0 0 0 0 0 
		33 0 0 0 0 0 0 0 0 0 0 0 0 0 0 0 0 0 0 0 0 0 0 0 0 0 0 0 0 0 0 0 0 0 0 
;
param bs:	 0 1 2 3 4 5 6 7 8 9 10 11 12 13 14 15 16 17 18 19 20 21 22 23 24 25 26 27 28 29 30 31 32 33 34 35 36 37 38 39 40 41 42 43 44 45 46 47 48 49 50 51 52 53 54 55 56 57 58 59 60 61 62 63 64 65 66 67 68 69 70 71 72 := 
		0 0 0 0 0 0 0 0 0 0 0 0 0 0 0 0 0 0 0 0 0 0 22 0 0 26 0 39 0 0 0 0 26 0 0 0 0 0 0 0 0 0 0 0 0 0 0 0 0 0 0 0 0 0 0 0 0 0 0 0 0 0 0 0 0 0 0 0 0 0 0 0 0 0 
		1 0 0 0 0 0 0 0 0 0 0 0 0 0 0 0 0 0 0 0 0 0 0 0 0 0 0 0 0 0 0 36 0 0 0 0 0 24 0 0 0 0 31 0 0 0 0 0 29 0 0 0 0 0 0 0 0 0 0 0 0 0 0 0 0 0 0 0 0 0 0 0 0 0 
		2 0 0 0 30 0 0 0 0 0 0 0 0 0 0 0 0 0 0 0 0 27 0 0 0 0 0 0 0 0 0 0 0 0 30 0 25 0 0 26 0 35 34 0 0 0 0 0 0 0 0 0 0 0 0 0 0 0 0 0 0 0 0 0 0 0 0 0 0 0 0 0 30 24 
		3 0 0 30 0 37 0 0 39 0 0 0 0 0 0 0 0 0 0 0 0 0 0 0 0 0 0 0 0 0 0 0 0 0 0 0 0 0 33 0 0 31 33 0 0 0 0 0 0 0 0 0 0 0 0 0 27 0 0 0 0 0 0 35 0 0 0 0 0 0 0 0 0 0 
		4 0 0 0 37 0 0 0 0 0 0 0 39 32 0 0 0 0 0 0 0 0 0 0 0 0 0 0 0 0 36 0 0 0 0 0 0 0 0 0 0 0 0 23 0 0 0 37 0 0 40 0 0 0 0 0 0 0 28 0 0 20 0 29 0 0 20 0 0 0 0 0 0 0 
		5 0 0 0 0 0 0 40 0 0 0 0 0 0 26 38 0 0 0 0 0 0 0 0 34 0 0 0 0 0 0 0 20 0 0 0 0 0 31 0 0 0 0 0 0 0 0 0 0 0 0 0 21 0 0 0 0 0 0 0 0 0 0 0 0 0 0 0 0 37 0 0 0 0 
		6 0 0 0 0 0 40 0 0 0 0 0 0 0 0 36 0 0 0 31 0 0 0 39 22 0 0 0 28 0 0 0 0 0 0 0 24 0 0 0 0 0 0 0 0 0 0 0 0 0 0 0 0 0 0 0 0 0 0 0 0 0 0 0 0 0 0 0 0 25 0 0 0 0 
		7 0 0 0 39 0 0 0 0 0 0 0 0 0 0 0 0 0 0 0 0 0 0 0 0 0 0 0 0 40 0 0 0 0 0 0 0 0 0 0 0 0 0 0 0 0 0 0 0 0 0 0 0 0 0 0 0 0 0 0 0 0 38 0 0 0 0 0 0 0 0 0 0 0 
		8 0 0 0 0 0 0 0 0 0 0 0 0 0 0 0 0 0 0 0 0 0 0 0 0 0 0 0 30 0 0 0 0 0 0 0 0 0 0 0 0 0 0 0 0 0 0 0 0 0 0 0 0 0 0 0 0 0 0 0 40 0 28 0 0 0 0 0 0 0 0 0 0 32 
		9 0 0 0 0 0 0 0 0 0 0 0 0 0 0 0 0 0 0 40 0 0 34 0 0 0 0 37 0 0 0 0 0 0 0 0 22 0 0 0 0 0 0 0 0 0 35 0 23 0 0 0 26 0 0 0 0 0 0 0 0 0 0 33 0 0 29 0 0 0 0 0 0 0 
		10 0 0 0 0 0 0 0 0 0 0 0 0 0 0 32 0 0 27 0 0 0 0 0 0 0 0 0 0 0 0 0 0 31 0 27 0 0 0 0 0 0 0 0 0 36 0 0 0 0 0 0 0 0 0 0 0 0 0 0 27 0 24 0 0 0 0 0 0 0 38 0 0 0 
		11 0 0 0 0 39 0 0 0 0 0 0 0 0 0 0 0 0 0 0 0 0 0 0 0 0 0 0 0 0 0 0 0 22 0 0 0 0 0 0 0 0 0 0 0 0 0 37 30 0 0 36 0 21 0 0 0 0 0 0 0 0 0 0 0 0 0 0 0 0 0 0 0 0 
		12 0 0 0 0 32 0 0 0 0 0 0 0 0 0 0 0 0 27 0 0 0 0 0 0 0 0 29 0 0 0 0 0 0 0 36 0 0 0 0 0 0 0 0 0 24 32 0 0 0 25 0 0 30 0 0 0 0 0 0 0 0 40 0 33 0 0 0 0 0 0 0 0 0 
		13 0 0 0 0 0 26 0 0 0 0 0 0 0 0 0 0 0 0 33 0 0 0 0 0 0 0 0 0 0 0 0 0 0 0 0 0 0 0 0 0 0 0 0 0 0 0 0 0 0 0 0 0 0 0 0 0 0 0 0 0 0 24 0 0 0 0 0 0 0 0 0 0 23 
		14 0 0 0 0 0 38 36 0 0 0 32 0 0 0 0 0 0 0 0 0 0 0 0 0 37 0 0 20 0 0 0 0 0 0 0 0 0 0 0 0 0 0 38 0 0 0 0 0 0 0 21 0 0 0 0 0 0 0 21 0 0 34 0 0 0 0 0 0 0 0 0 0 0 
		15 0 0 0 0 0 0 0 0 0 0 0 0 0 0 0 0 0 0 0 0 0 0 0 0 0 0 0 0 0 0 0 0 0 0 0 0 0 0 0 0 0 0 0 0 0 0 0 25 0 0 0 0 0 0 0 23 0 0 0 0 0 0 0 0 0 0 27 0 29 0 0 0 0 
		16 0 0 0 0 0 0 0 0 0 0 0 0 0 0 0 0 0 0 0 0 0 0 0 0 0 0 0 0 0 35 0 0 0 0 0 0 0 0 0 0 0 0 0 0 0 0 0 0 0 28 0 0 30 0 0 37 0 0 0 0 0 0 0 0 0 0 0 0 0 0 0 37 0 
		17 0 0 0 0 0 0 0 0 0 0 27 0 27 0 0 0 0 0 0 0 0 0 0 0 0 0 0 0 0 0 0 0 0 0 0 34 0 31 0 0 0 0 0 0 0 0 23 0 0 40 0 34 0 0 0 0 0 0 0 0 0 0 0 0 0 0 0 0 0 0 0 0 0 
		18 0 0 0 0 0 0 31 0 0 40 0 0 0 33 0 0 0 0 0 0 36 37 0 0 0 0 0 39 0 0 23 0 0 0 0 0 0 0 0 0 0 0 0 0 0 0 0 0 0 0 0 0 0 0 0 0 0 0 0 0 0 32 0 0 0 0 0 0 0 0 0 0 0 
		19 0 0 0 0 0 0 0 0 0 0 0 0 0 0 0 0 0 0 0 0 0 0 0 0 23 0 30 0 0 0 0 0 0 0 0 33 0 0 31 0 0 0 0 37 0 33 26 0 0 0 0 0 34 0 0 0 0 0 0 0 0 24 0 35 0 0 0 0 36 0 0 28 0 
		20 0 0 27 0 0 0 0 0 0 0 0 0 0 0 0 0 0 0 36 0 0 0 0 0 0 0 0 0 0 0 0 0 0 0 34 27 0 0 0 0 0 0 0 0 0 0 31 0 0 0 0 0 0 0 24 0 0 0 20 0 0 22 0 0 0 0 0 0 0 0 0 0 0 
		21 22 0 0 0 0 0 0 0 0 34 0 0 0 0 0 0 0 0 37 0 0 0 0 0 0 0 0 0 0 0 0 31 0 0 0 0 0 0 0 0 0 0 0 0 0 28 0 32 0 0 0 21 0 0 0 0 0 0 0 26 0 0 0 24 33 0 0 0 0 0 0 25 0 
		22 0 0 0 0 0 0 39 0 0 0 0 0 0 0 0 0 0 0 0 0 0 0 0 0 0 0 0 0 0 0 0 0 0 0 0 0 0 0 0 0 0 0 0 0 0 0 0 0 0 0 0 0 0 0 38 0 0 33 0 0 0 0 0 0 22 0 0 0 0 23 0 0 0 
		23 0 0 0 0 0 34 22 0 0 0 0 0 0 0 0 0 0 0 0 0 0 0 0 0 0 0 39 0 30 0 0 0 0 0 0 0 0 0 0 0 0 0 0 0 0 0 0 0 0 0 0 0 0 0 0 0 0 0 0 0 0 0 0 0 34 0 30 0 0 0 0 0 0 
		24 26 0 0 0 0 0 0 0 0 0 0 0 0 0 37 0 0 0 0 23 0 0 0 0 0 0 0 40 0 0 0 0 0 26 0 0 0 0 0 33 0 0 0 0 0 0 0 0 0 0 0 0 0 0 0 0 0 29 0 0 0 0 0 0 0 0 0 0 0 0 0 0 25 
		25 0 0 0 0 0 0 0 0 0 0 0 0 0 0 0 0 0 0 0 0 0 0 0 0 0 0 0 0 0 0 22 0 0 0 0 0 0 0 0 0 0 0 0 0 0 0 0 0 0 0 0 0 0 0 0 0 0 0 0 0 0 0 0 0 0 0 0 0 0 21 0 0 0 
		26 39 0 0 0 0 0 0 0 0 37 0 0 29 0 0 0 0 0 0 30 0 0 0 39 0 0 0 22 0 0 38 0 0 0 0 0 0 0 34 0 0 0 26 0 38 0 0 0 0 0 0 0 0 0 21 0 0 0 0 0 0 0 0 20 0 0 0 0 0 0 0 0 0 
		27 0 0 0 0 0 0 28 0 30 0 0 0 0 0 20 0 0 0 39 0 0 0 0 0 40 0 22 0 0 0 0 0 0 0 0 0 0 0 0 29 0 0 0 0 0 0 0 0 0 0 0 34 0 0 0 0 0 0 0 0 0 0 0 0 26 0 0 36 0 0 39 0 0 
		28 0 0 0 0 0 0 0 40 0 0 0 0 0 0 0 0 0 0 0 0 0 0 0 30 0 0 0 0 0 0 22 0 0 0 0 0 0 0 0 0 0 0 0 0 0 0 0 0 0 0 0 0 0 0 0 0 0 0 0 0 0 0 0 0 0 0 0 0 0 0 0 0 0 
		29 0 0 0 0 36 0 0 0 0 0 0 0 0 0 0 0 35 0 0 0 0 0 0 0 0 0 0 0 0 0 0 24 0 0 25 0 0 0 0 0 0 0 0 0 0 22 0 0 0 0 30 0 0 36 0 0 0 0 0 0 25 0 0 0 0 0 0 0 0 0 0 21 0 
		30 0 36 0 0 0 0 0 0 0 0 0 0 0 0 0 0 0 0 23 0 0 0 0 0 0 22 38 0 22 0 0 0 35 0 0 0 0 40 0 23 0 0 0 0 0 0 0 0 0 0 0 0 0 0 0 0 0 0 0 36 0 0 0 0 0 0 0 20 0 0 0 0 0 
		31 26 0 0 0 0 20 0 0 0 0 0 0 0 0 0 0 0 0 0 0 0 31 0 0 0 0 0 0 0 24 0 0 0 0 0 0 0 0 0 0 0 0 0 0 0 0 0 0 0 0 0 0 0 0 40 0 0 0 0 0 0 0 0 0 0 0 0 0 0 0 0 0 0 
		32 0 0 0 0 0 0 0 0 0 0 31 22 0 0 0 0 0 0 0 0 0 0 0 0 0 0 0 0 0 0 35 0 0 0 0 0 0 0 0 0 0 0 0 0 0 0 0 0 40 0 0 0 33 0 0 0 0 0 0 0 0 0 0 0 0 0 0 0 0 0 0 0 0 
		33 0 0 30 0 0 0 0 0 0 0 0 0 0 0 0 0 0 0 0 0 0 0 0 0 26 0 0 0 0 0 0 0 0 0 0 24 0 0 21 0 0 0 0 32 0 0 0 0 0 0 0 0 0 0 0 0 0 0 0 40 0 0 0 0 0 0 0 0 29 0 33 0 0 
		34 0 0 0 0 0 0 0 0 0 0 27 0 36 0 0 0 0 0 0 0 34 0 0 0 0 0 0 0 0 25 0 0 0 0 0 0 22 0 0 0 0 0 0 0 0 0 0 31 0 0 0 0 0 0 0 0 0 0 27 0 0 27 0 0 0 0 0 0 0 0 0 0 0 
		35 0 0 25 0 0 0 24 0 0 22 0 0 0 0 0 0 0 34 0 33 27 0 0 0 0 0 0 0 0 0 0 0 0 24 0 0 0 0 0 0 28 0 0 0 0 0 0 0 0 0 0 0 0 0 23 0 0 0 0 0 0 0 0 0 0 0 30 0 0 0 0 0 0 
		36 0 24 0 0 0 0 0 0 0 0 0 0 0 0 0 0 0 0 0 0 0 0 0 0 0 0 0 0 0 0 0 0 0 0 22 0 0 0 0 0 0 0 0 0 33 24 33 0 0 0 0 0 0 0 0 0 0 0 0 0 0 31 0 0 25 0 0 21 0 0 0 0 0 
		37 0 0 0 33 0 31 0 0 0 0 0 0 0 0 0 0 0 31 0 0 0 0 0 0 0 0 0 0 0 0 40 0 0 0 0 0 0 0 0 0 0 0 0 0 0 0 0 0 0 0 0 0 0 0 29 0 40 0 21 0 0 0 0 29 0 0 0 26 0 0 23 0 0 
		38 0 0 26 0 0 0 0 0 0 0 0 0 0 0 0 0 0 0 0 31 0 0 0 0 0 0 34 0 0 0 0 0 0 21 0 0 0 0 0 0 0 38 0 0 0 32 0 0 0 0 0 0 0 0 0 0 0 0 0 0 0 0 0 33 0 0 23 0 0 0 0 0 0 
		39 0 0 0 0 0 0 0 0 0 0 0 0 0 0 0 0 0 0 0 0 0 0 0 0 33 0 0 29 0 0 23 0 0 0 0 0 0 0 0 0 0 0 0 0 0 0 0 0 0 0 0 0 0 25 0 0 0 0 0 0 40 0 0 0 0 0 0 0 0 0 26 0 0 
		40 0 0 35 31 0 0 0 0 0 0 0 0 0 0 0 0 0 0 0 0 0 0 0 0 0 0 0 0 0 0 0 0 0 0 0 28 0 0 0 0 0 27 0 29 0 0 28 0 0 0 0 0 0 0 0 0 0 0 0 0 0 0 0 0 0 0 28 0 25 0 0 24 0 
		41 0 31 34 33 0 0 0 0 0 0 0 0 0 0 0 0 0 0 0 0 0 0 0 0 0 0 0 0 0 0 0 0 0 0 0 0 0 0 38 0 27 0 0 27 0 0 0 0 0 0 0 0 0 0 0 0 0 0 0 0 0 0 0 0 0 0 34 0 0 0 0 0 0 
		42 0 0 0 0 23 0 0 0 0 0 0 0 0 0 38 0 0 0 0 0 0 0 0 0 0 0 26 0 0 0 0 0 0 0 0 0 0 0 0 0 0 0 0 0 0 0 0 0 0 0 0 0 26 0 0 0 0 0 0 0 0 27 0 0 0 0 0 0 0 0 0 0 24 
		43 0 0 0 0 0 0 0 0 0 0 0 0 0 0 0 0 0 0 0 37 0 0 0 0 0 0 0 0 0 0 0 0 0 32 0 0 0 0 0 0 29 27 0 0 0 0 34 0 0 0 0 0 0 0 31 0 0 0 0 0 0 0 0 0 0 0 0 0 22 0 28 0 22 
		44 0 0 0 0 0 0 0 0 0 0 36 0 24 0 0 0 0 0 0 0 0 0 0 0 0 0 38 0 0 0 0 0 0 0 0 0 33 0 0 0 0 0 0 0 0 0 0 0 0 36 0 0 0 0 0 0 0 0 40 0 0 0 0 0 35 0 0 0 0 0 0 0 0 
		45 0 0 0 0 0 0 0 0 0 35 0 0 32 0 0 0 0 0 0 33 0 28 0 0 0 0 0 0 0 22 0 0 0 0 0 0 24 0 32 0 0 0 0 0 0 0 39 0 0 0 0 0 0 0 0 0 0 0 0 0 34 0 0 28 0 0 0 0 26 0 0 0 0 
		46 0 0 0 0 37 0 0 0 0 0 0 37 0 0 0 0 0 23 0 26 31 0 0 0 0 0 0 0 0 0 0 0 0 0 0 0 33 0 0 0 28 0 0 34 0 39 0 0 0 0 39 39 0 0 0 0 0 35 0 0 0 0 0 0 0 0 0 0 0 0 0 40 0 
		47 0 29 0 0 0 0 0 0 0 23 0 30 0 0 0 25 0 0 0 0 0 32 0 0 0 0 0 0 0 0 0 0 0 0 31 0 0 0 0 0 0 0 0 0 0 0 0 0 0 32 0 0 0 0 0 0 0 0 0 0 0 0 33 0 0 0 0 0 0 0 0 0 0 
		48 0 0 0 0 0 0 0 0 0 0 0 0 0 0 0 0 0 0 0 0 0 0 0 0 0 0 0 0 0 0 0 0 40 0 0 0 0 0 0 0 0 0 0 0 0 0 0 0 0 0 0 0 0 0 0 0 0 0 0 0 0 0 0 0 0 0 38 0 0 0 25 25 0 
		49 0 0 0 0 40 0 0 0 0 0 0 0 25 0 0 0 28 40 0 0 0 0 0 0 0 0 0 0 0 0 0 0 0 0 0 0 0 0 0 0 0 0 0 0 36 0 0 32 0 0 0 0 38 0 0 0 0 0 0 0 0 0 25 0 0 26 0 0 0 0 0 0 0 
		50 0 0 0 0 0 0 0 0 0 0 0 36 0 0 21 0 0 0 0 0 0 0 0 0 0 0 0 0 0 30 0 0 0 0 0 0 0 0 0 0 0 0 0 0 0 0 39 0 0 0 0 0 0 0 0 0 0 0 0 0 0 0 0 39 0 0 0 0 0 0 0 0 0 
		51 0 0 0 0 0 21 0 0 0 26 0 0 0 0 0 0 0 34 0 0 0 21 0 0 0 0 0 34 0 0 0 0 0 0 0 0 0 0 0 0 0 0 0 0 0 0 39 0 0 0 0 0 29 0 38 31 0 0 0 0 0 0 0 0 0 0 23 0 0 0 0 0 0 
		52 0 0 0 0 0 0 0 0 0 0 0 21 30 0 0 0 30 0 0 34 0 0 0 0 0 0 0 0 0 0 0 0 33 0 0 0 0 0 0 0 0 0 26 0 0 0 0 0 0 38 0 29 0 0 0 0 0 0 0 24 21 0 0 0 0 32 0 0 0 0 0 0 0 
		53 0 0 0 0 0 0 0 0 0 0 0 0 0 0 0 0 0 0 0 0 0 0 0 0 0 0 0 0 0 36 0 0 0 0 0 0 0 0 0 25 0 0 0 0 0 0 0 0 0 0 0 0 0 0 0 0 0 0 0 0 0 34 33 0 0 0 0 0 0 0 0 0 0 
		54 0 0 0 0 0 0 0 0 0 0 0 0 0 0 0 0 0 0 0 0 24 0 38 0 0 0 21 0 0 0 0 40 0 0 0 23 0 29 0 0 0 0 0 31 0 0 0 0 0 0 0 38 0 0 0 0 0 0 0 0 0 0 0 0 0 0 0 0 0 0 0 0 0 
		55 0 0 0 27 0 0 0 0 0 0 0 0 0 0 0 23 37 0 0 0 0 0 0 0 0 0 0 0 0 0 0 0 0 0 0 0 0 0 0 0 0 0 0 0 0 0 0 0 0 0 0 31 0 0 0 0 0 0 0 0 0 0 0 0 0 0 0 0 0 39 0 0 0 
		56 0 0 0 0 0 0 0 0 0 0 0 0 0 0 0 0 0 0 0 0 0 0 0 0 0 0 0 0 0 0 0 0 0 0 0 0 0 40 0 0 0 0 0 0 0 0 0 0 0 0 0 0 0 0 0 0 0 0 0 22 0 0 0 0 0 0 0 0 0 0 0 0 30 
		57 0 0 0 0 28 0 0 0 0 0 0 0 0 0 0 0 0 0 0 0 0 0 33 0 29 0 0 0 0 0 0 0 0 0 0 0 0 0 0 0 0 0 0 0 0 0 35 0 0 0 0 0 0 0 0 0 0 0 0 0 0 0 0 0 0 0 0 0 0 27 0 0 0 
		58 0 0 0 0 0 0 0 0 0 0 0 0 0 0 21 0 0 0 0 0 20 0 0 0 0 0 0 0 0 0 0 0 0 0 27 0 0 21 0 0 0 0 0 0 40 0 0 0 0 0 0 0 0 0 0 0 0 0 0 0 0 0 0 0 0 0 0 0 0 23 0 0 40 
		59 0 0 0 0 0 0 0 0 40 0 27 0 0 0 0 0 0 0 0 0 0 26 0 0 0 0 0 0 0 0 36 0 0 40 0 0 0 0 0 0 0 0 0 0 0 0 0 0 0 0 0 0 24 0 0 0 22 0 0 0 0 0 0 0 0 0 0 0 0 0 0 0 0 
		60 0 0 0 0 20 0 0 0 0 0 0 0 0 0 0 0 0 0 0 0 0 0 0 0 0 0 0 0 0 25 0 0 0 0 0 0 0 0 0 40 0 0 0 0 0 34 0 0 0 0 0 0 21 0 0 0 0 0 0 0 0 0 40 0 0 0 0 0 0 0 0 30 0 
		61 0 0 0 0 0 0 0 38 28 0 24 0 40 24 34 0 0 0 32 24 22 0 0 0 0 0 0 0 0 0 0 0 0 0 27 0 31 0 0 0 0 0 27 0 0 0 0 0 0 0 0 0 0 34 0 0 0 0 0 0 0 0 20 0 0 0 0 0 0 0 0 0 0 
		62 0 0 0 35 29 0 0 0 0 33 0 0 0 0 0 0 0 0 0 0 0 0 0 0 0 0 0 0 0 0 0 0 0 0 0 0 0 0 0 0 0 0 0 0 0 0 0 33 0 25 0 0 0 33 0 0 0 0 0 0 40 20 0 0 32 0 0 29 20 0 0 0 0 
		63 0 0 0 0 0 0 0 0 0 0 0 0 33 0 0 0 0 0 0 35 0 24 0 0 0 0 20 0 0 0 0 0 0 0 0 0 0 29 33 0 0 0 0 0 0 28 0 0 0 0 39 0 0 0 0 0 0 0 0 0 0 0 0 0 0 25 0 0 0 0 0 0 0 
		64 0 0 0 0 0 0 0 0 0 0 0 0 0 0 0 0 0 0 0 0 0 33 22 34 0 0 0 26 0 0 0 0 0 0 0 0 25 0 0 0 0 0 0 0 35 0 0 0 0 0 0 0 0 0 0 0 0 0 0 0 0 0 32 0 0 0 0 0 0 0 0 0 0 
		65 0 0 0 0 20 0 0 0 0 29 0 0 0 0 0 0 0 0 0 0 0 0 0 0 0 0 0 0 0 0 0 0 0 0 0 0 0 0 0 0 0 0 0 0 0 0 0 0 0 26 0 0 32 0 0 0 0 0 0 0 0 0 0 25 0 0 0 0 0 0 0 0 0 
		66 0 0 0 0 0 0 0 0 0 0 0 0 0 0 0 27 0 0 0 0 0 0 0 30 0 0 0 0 0 0 0 0 0 0 0 30 0 0 23 0 28 34 0 0 0 0 0 0 38 0 0 23 0 0 0 0 0 0 0 0 0 0 0 0 0 0 0 0 0 0 0 0 0 
		67 0 0 0 0 0 0 0 0 0 0 0 0 0 0 0 0 0 0 0 0 0 0 0 0 0 0 0 36 0 0 20 0 0 0 0 0 21 26 0 0 0 0 0 0 0 0 0 0 0 0 0 0 0 0 0 0 0 0 0 0 0 0 29 0 0 0 0 0 0 0 34 0 37 
		68 0 0 0 0 0 37 25 0 0 0 0 0 0 0 0 29 0 0 0 36 0 0 0 0 0 0 0 0 0 0 0 0 0 29 0 0 0 0 0 0 25 0 0 22 0 26 0 0 0 0 0 0 0 0 0 0 0 0 0 0 0 0 20 0 0 0 0 0 0 0 0 0 20 
		69 0 0 0 0 0 0 0 0 0 0 38 0 0 0 0 0 0 0 0 0 0 0 23 0 0 21 0 0 0 0 0 0 0 0 0 0 0 0 0 0 0 0 0 0 0 0 0 0 0 0 0 0 0 0 0 39 0 27 23 0 0 0 0 0 0 0 0 0 0 0 0 0 0 
		70 0 0 0 0 0 0 0 0 0 0 0 0 0 0 0 0 0 0 0 0 0 0 0 0 0 0 0 39 0 0 0 0 0 33 0 0 0 23 0 26 0 0 0 28 0 0 0 0 25 0 0 0 0 0 0 0 0 0 0 0 0 0 0 0 0 0 0 34 0 0 0 0 40 
		71 0 0 30 0 0 0 0 0 0 0 0 0 0 0 0 0 37 0 0 28 0 25 0 0 0 0 0 0 0 21 0 0 0 0 0 0 0 0 0 0 24 0 0 0 0 0 40 0 25 0 0 0 0 0 0 0 0 0 0 0 30 0 0 0 0 0 0 0 0 0 0 0 0 
		72 0 0 24 0 0 0 0 0 32 0 0 0 0 23 0 0 0 0 0 0 0 0 0 0 25 0 0 0 0 0 0 0 0 0 0 0 0 0 0 0 0 0 24 22 0 0 0 0 0 0 0 0 0 0 0 0 30 0 40 0 0 0 0 0 0 0 0 37 20 0 40 0 0 
;
